69 -1 43 41 42 64 22 62 68 -3 44 24 49 56 23 63 16 51 -4 30 2 33 6 -7 35 53 14 59 19 8 -10 31 25 55 18 50 32 -11 66 65 38 58 -17 40 9 39 12 26 -28 61 21 69 36 47 48 -29 5 37 60 20 15 57 13 54 -45 27 52 34 46 67 0

